language ESSENCE' 1.0
$ minion Nodes: 1
$ minion TotalTime: 0.000636
$ Savile Row TotalTime: 0.254
letting pain_tuple2_tuple4 be [8;int(1)]
letting pain_tuple3_tuple1_tuple2 be [11;int(1)]
letting pain_tuple1 be [2;int(1)]
letting pain_tuple3_tuple1_tuple1 be [10;int(1)]
letting pain_tuple3_tuple2 be [12;int(1)]
letting pain_tuple2_tuple1 be [5;int(1)]
letting pain_tuple2_tuple3 be [7;int(1)]
letting pain_tuple2_tuple2 be [6;int(1)]
